m = 4; % number of couriers
n = 5; % number of packages

l = [10, 6, 10, 11]; % maximum carriable weight per courier
s = [3, 4, 4, 3, 6]; % weight of each package

D = % distance matrix 
	 [| 8, 7, 8, 4, 7, 5
	 | 4, 6, 5, 7, 4, 2
	 | 2, 3, 7, 4, 7, 8
	 | 8, 5, 3, 8, 2, 4
	 | 3, 3, 8, 2, 7, 4
	 | 4, 3, 7, 3, 4, 6
	 |];